Minimize
	value: tt

Subject to
tt + 1024 s_1_1 > 0.0
tt - t_1_1 - 1031.951135 s_1_1 + 7.951135 s_1_7 > -1005.448242
tt + 1024 s_2_1 > 0.0
tt - t_2_1 - 1032.500052 s_2_1 + 8.500052 s_2_7 > -1008.717973
tt + 1024 s_1_2 > 0.0
tt - t_1_2 - 1027.975568 s_1_2 + 3.975568 s_1_7 > -1005.535689
tt + 1024 s_2_2 > 0.0
tt - t_2_2 - 1028.250026 s_2_2 + 4.250026 s_2_7 > -1009.788215
tt + 1024 s_1_3 > 0.0
tt - t_1_3 - 1035.926703 s_1_3 + 11.926703 s_1_7 > -1022.098567
tt + 1024 s_2_3 > 0.0
tt - t_2_3 - 1036.750079 s_2_3 + 12.750079 s_2_7 > -1021.489583
tt + 1024 s_1_4 > 0.0
tt - t_1_4 - 1027.975568 s_1_4 + 3.975568 s_1_7 > -1021.068808
tt + 1024 s_2_4 > 0.0
tt - t_2_4 - 1028.250026 s_2_4 + 4.250026 s_2_7 > -1020.048756
tt + 1024 s_1_5 > 0.0
tt - t_1_5 - 1029.963351 s_1_5 + 5.963351 s_1_8 > -1015.159800
tt + 1024 s_2_5 > 0.0
tt - t_2_5 - 1030.375039 s_2_5 + 6.375039 s_2_8 > -1017.314938
tt + 1024 s_1_6 > 0.0
tt - t_1_6 - 1095.560215 s_1_6 + 71.560215 s_1_1 > -1022.685333
tt + 1024 s_2_6 > 0.0
tt - t_2_6 - 1100.500472 s_2_6 + 76.500472 s_2_1 > -1021.026900
tt + 1024 s_1_7 > 0.0
tt - t_1_7 - 1024.000000 s_1_7 > -997.901247
tt + 1024 s_2_7 > 0.0
tt - t_2_7 - 1024.000000 s_2_7 > -1012.437778
tt + 1024 s_1_8 > 0.0
tt - t_1_8 - 1024.000000 s_1_8 > -998.373656
tt + 1024 s_2_8 > 0.0
tt - t_2_8 - 1024.000000 s_2_8 > -1012.673400
s_1_1 + s_2_1  = 1
s_1_2 + s_2_2  = 1
s_1_3 + s_2_3  = 1
s_1_4 + s_2_4  = 1
s_1_5 + s_2_5  = 1
s_1_6 + s_2_6  = 1
s_1_7 + s_2_7  = 1
s_1_8 + s_2_8  = 1
s_1_1 + s_1_2 + 1024 r_1_1_2 >= 2
- s_1_1 - s_1_2 - 1024 r_1_1_2 >= -1025
t_1_1 - t_1_2 - 1024.000000 u_1_1_2 - 3.975568 s_1_2 + 3.975568 s_1_7 + 2048.000000 r_1_1_2 > -1005.535689
s_2_1 + s_2_2 + 1024 r_2_1_2 >= 2
- s_2_1 - s_2_2 - 1024 r_2_1_2 >= -1025
t_2_1 - t_2_2 - 1024.000000 u_2_1_2 - 4.250026 s_2_2 + 4.250026 s_2_7 + 2048.000000 r_2_1_2 > -1009.788215
s_1_1 + s_1_3 + 1024 r_1_1_3 >= 2
- s_1_1 - s_1_3 - 1024 r_1_1_3 >= -1025
t_1_1 - t_1_3 - 1024.000000 u_1_1_3 - 5.963351 s_1_3 + 5.963351 s_1_7 + 2048.000000 r_1_1_3 > -1022.098567
s_2_1 + s_2_3 + 1024 r_2_1_3 >= 2
- s_2_1 - s_2_3 - 1024 r_2_1_3 >= -1025
t_2_1 - t_2_3 - 1024.000000 u_2_1_3 - 6.375039 s_2_3 + 6.375039 s_2_7 + 2048.000000 r_2_1_3 > -1021.489583
s_1_1 + s_1_4 + 1024 r_1_1_4 >= 2
- s_1_1 - s_1_4 - 1024 r_1_1_4 >= -1025
t_1_1 - t_1_4 - 1024.000000 u_1_1_4 - 3.975568 s_1_4 + 3.975568 s_1_7 + 2048.000000 r_1_1_4 > -1021.068808
s_2_1 + s_2_4 + 1024 r_2_1_4 >= 2
- s_2_1 - s_2_4 - 1024 r_2_1_4 >= -1025
t_2_1 - t_2_4 - 1024.000000 u_2_1_4 - 4.250026 s_2_4 + 4.250026 s_2_7 + 2048.000000 r_2_1_4 > -1020.048756
s_1_1 + s_1_5 + 1024 r_1_1_5 >= 2
- s_1_1 - s_1_5 - 1024 r_1_1_5 >= -1025
t_1_1 - t_1_5 - 1024.000000 u_1_1_5 - 5.963351 s_1_5 + 5.963351 s_1_8 + 2048.000000 r_1_1_5 > -1015.159800
s_2_1 + s_2_5 + 1024 r_2_1_5 >= 2
- s_2_1 - s_2_5 - 1024 r_2_1_5 >= -1025
t_2_1 - t_2_5 - 1024.000000 u_2_1_5 - 6.375039 s_2_5 + 6.375039 s_2_8 + 2048.000000 r_2_1_5 > -1017.314938
t_1_6 - t_1_1 - 22.527326 s_1_1 + 3.975568 s_1_7 > 0.0
t_1_6 - t_2_1 - 19.532053 s_2_1 + 4.250026 s_2_7 > 0.0
t_2_6 - t_1_1 - 22.527326 s_1_1 + 3.975568 s_1_7 > 0.0
t_2_6 - t_2_1 - 19.532053 s_2_1 + 4.250026 s_2_7 > 0.0
t_1_1 - t_1_7 - 1024.000000 s_1_7 > -997.901247
t_1_1 - t_2_7 - 1024.000000 s_2_7 > -1012.437778
t_2_1 - t_1_7 - 1024.000000 s_1_7 > -997.901247
t_2_1 - t_2_7 - 1024.000000 s_2_7 > -1012.437778
t_1_1 - t_1_8 - 1024.000000 s_1_8 > -998.373656
t_1_1 - t_2_8 - 1024.000000 s_2_8 > -1012.673400
t_2_1 - t_1_8 - 1024.000000 s_1_8 > -998.373656
t_2_1 - t_2_8 - 1024.000000 s_2_8 > -1012.673400
s_1_2 + s_1_1 + 1024 r_1_1_2 >= 2
- s_1_2 - s_1_1 - 1024 r_1_1_2 >= -1025
t_1_2 - t_1_1 + 1024.000000 u_1_1_2 - 3.975568 s_1_1 + 3.975568 s_1_7 + 2048.000000 r_1_1_2 > 18.551758
s_2_2 + s_2_1 + 1024 r_2_1_2 >= 2
- s_2_2 - s_2_1 - 1024 r_2_1_2 >= -1025
t_2_2 - t_2_1 + 1024.000000 u_2_1_2 - 4.250026 s_2_1 + 4.250026 s_2_7 + 2048.000000 r_2_1_2 > 15.282027
s_1_2 + s_1_3 + 1024 r_1_2_3 >= 2
- s_1_2 - s_1_3 - 1024 r_1_2_3 >= -1025
t_1_2 - t_1_3 - 1024.000000 u_1_2_3 - 5.963351 s_1_3 + 5.963351 s_1_7 + 2048.000000 r_1_2_3 > -1022.098567
s_2_2 + s_2_3 + 1024 r_2_2_3 >= 2
- s_2_2 - s_2_3 - 1024 r_2_2_3 >= -1025
t_2_2 - t_2_3 - 1024.000000 u_2_2_3 - 6.375039 s_2_3 + 6.375039 s_2_7 + 2048.000000 r_2_2_3 > -1021.489583
s_1_2 + s_1_4 + 1024 r_1_2_4 >= 2
- s_1_2 - s_1_4 - 1024 r_1_2_4 >= -1025
t_1_2 - t_1_4 - 1024.000000 u_1_2_4 - 3.975568 s_1_4 + 3.975568 s_1_7 + 2048.000000 r_1_2_4 > -1021.068808
s_2_2 + s_2_4 + 1024 r_2_2_4 >= 2
- s_2_2 - s_2_4 - 1024 r_2_2_4 >= -1025
t_2_2 - t_2_4 - 1024.000000 u_2_2_4 - 4.250026 s_2_4 + 4.250026 s_2_7 + 2048.000000 r_2_2_4 > -1020.048756
s_1_2 + s_1_5 + 1024 r_1_2_5 >= 2
- s_1_2 - s_1_5 - 1024 r_1_2_5 >= -1025
t_1_2 - t_1_5 - 1024.000000 u_1_2_5 - 5.963351 s_1_5 + 5.963351 s_1_8 + 2048.000000 r_1_2_5 > -1015.159800
s_2_2 + s_2_5 + 1024 r_2_2_5 >= 2
- s_2_2 - s_2_5 - 1024 r_2_2_5 >= -1025
t_2_2 - t_2_5 - 1024.000000 u_2_2_5 - 6.375039 s_2_5 + 6.375039 s_2_8 + 2048.000000 r_2_2_5 > -1017.314938
t_1_6 - t_1_2 - 22.439879 s_1_2 + 3.975568 s_1_7 > 0.0
t_1_6 - t_2_2 - 18.461812 s_2_2 + 4.250026 s_2_7 > 0.0
t_2_6 - t_1_2 - 22.439879 s_1_2 + 3.975568 s_1_7 > 0.0
t_2_6 - t_2_2 - 18.461812 s_2_2 + 4.250026 s_2_7 > 0.0
t_1_2 - t_1_7 - 1024.000000 s_1_7 > -997.901247
t_1_2 - t_2_7 - 1024.000000 s_2_7 > -1012.437778
t_2_2 - t_1_7 - 1024.000000 s_1_7 > -997.901247
t_2_2 - t_2_7 - 1024.000000 s_2_7 > -1012.437778
s_1_2 + s_1_8 + 1024 r_1_2_8 >= 2
- s_1_2 - s_1_8 - 1024 r_1_2_8 >= -1025
t_1_2 - t_1_8 - 1024.000000 u_1_2_8 + 2048.000000 r_1_2_8 > -998.373656
s_2_2 + s_2_8 + 1024 r_2_2_8 >= 2
- s_2_2 - s_2_8 - 1024 r_2_2_8 >= -1025
t_2_2 - t_2_8 - 1024.000000 u_2_2_8 + 2048.000000 r_2_2_8 > -1012.673400
s_1_3 + s_1_1 + 1024 r_1_1_3 >= 2
- s_1_3 - s_1_1 - 1024 r_1_1_3 >= -1025
t_1_3 - t_1_1 + 1024.000000 u_1_1_3 - 3.975568 s_1_1 + 3.975568 s_1_7 + 2048.000000 r_1_1_3 > 18.551758
s_2_3 + s_2_1 + 1024 r_2_1_3 >= 2
- s_2_3 - s_2_1 - 1024 r_2_1_3 >= -1025
t_2_3 - t_2_1 + 1024.000000 u_2_1_3 - 4.250026 s_2_1 + 4.250026 s_2_7 + 2048.000000 r_2_1_3 > 15.282027
s_1_3 + s_1_2 + 1024 r_1_2_3 >= 2
- s_1_3 - s_1_2 - 1024 r_1_2_3 >= -1025
t_1_3 - t_1_2 + 1024.000000 u_1_2_3 - 3.975568 s_1_2 + 3.975568 s_1_7 + 2048.000000 r_1_2_3 > 18.464311
s_2_3 + s_2_2 + 1024 r_2_2_3 >= 2
- s_2_3 - s_2_2 - 1024 r_2_2_3 >= -1025
t_2_3 - t_2_2 + 1024.000000 u_2_2_3 - 4.250026 s_2_2 + 4.250026 s_2_7 + 2048.000000 r_2_2_3 > 14.211785
s_1_3 + s_1_4 + 1024 r_1_3_4 >= 2
- s_1_3 - s_1_4 - 1024 r_1_3_4 >= -1025
t_1_3 - t_1_4 - 1024.000000 u_1_3_4 - 3.975568 s_1_4 + 3.975568 s_1_7 + 2048.000000 r_1_3_4 > -1021.068808
s_2_3 + s_2_4 + 1024 r_2_3_4 >= 2
- s_2_3 - s_2_4 - 1024 r_2_3_4 >= -1025
t_2_3 - t_2_4 - 1024.000000 u_2_3_4 - 4.250026 s_2_4 + 4.250026 s_2_7 + 2048.000000 r_2_3_4 > -1020.048756
s_1_3 + s_1_5 + 1024 r_1_3_5 >= 2
- s_1_3 - s_1_5 - 1024 r_1_3_5 >= -1025
t_1_3 - t_1_5 - 1024.000000 u_1_3_5 - 5.963351 s_1_5 + 5.963351 s_1_8 + 2048.000000 r_1_3_5 > -1015.159800
s_2_3 + s_2_5 + 1024 r_2_3_5 >= 2
- s_2_3 - s_2_5 - 1024 r_2_3_5 >= -1025
t_2_3 - t_2_5 - 1024.000000 u_2_3_5 - 6.375039 s_2_5 + 6.375039 s_2_8 + 2048.000000 r_2_3_5 > -1017.314938
t_1_6 - t_1_3 - 7.864785 s_1_3 + 5.963351 s_1_7 > 0.0
t_1_6 - t_2_3 - 8.885456 s_2_3 + 6.375039 s_2_7 > 0.0
t_2_6 - t_1_3 - 7.864785 s_1_3 + 5.963351 s_1_7 > 0.0
t_2_6 - t_2_3 - 8.885456 s_2_3 + 6.375039 s_2_7 > 0.0
t_1_3 - t_1_7 - 1024.000000 s_1_7 > -997.901247
t_1_3 - t_2_7 - 1024.000000 s_2_7 > -1012.437778
t_2_3 - t_1_7 - 1024.000000 s_1_7 > -997.901247
t_2_3 - t_2_7 - 1024.000000 s_2_7 > -1012.437778
t_1_3 - t_1_8 - 1024.000000 s_1_8 > -998.373656
t_1_3 - t_2_8 - 1024.000000 s_2_8 > -1012.673400
t_2_3 - t_1_8 - 1024.000000 s_1_8 > -998.373656
t_2_3 - t_2_8 - 1024.000000 s_2_8 > -1012.673400
s_1_4 + s_1_1 + 1024 r_1_1_4 >= 2
- s_1_4 - s_1_1 - 1024 r_1_1_4 >= -1025
t_1_4 - t_1_1 + 1024.000000 u_1_1_4 - 3.975568 s_1_1 + 3.975568 s_1_7 + 2048.000000 r_1_1_4 > 18.551758
s_2_4 + s_2_1 + 1024 r_2_1_4 >= 2
- s_2_4 - s_2_1 - 1024 r_2_1_4 >= -1025
t_2_4 - t_2_1 + 1024.000000 u_2_1_4 - 4.250026 s_2_1 + 4.250026 s_2_7 + 2048.000000 r_2_1_4 > 15.282027
s_1_4 + s_1_2 + 1024 r_1_2_4 >= 2
- s_1_4 - s_1_2 - 1024 r_1_2_4 >= -1025
t_1_4 - t_1_2 + 1024.000000 u_1_2_4 - 3.975568 s_1_2 + 3.975568 s_1_7 + 2048.000000 r_1_2_4 > 18.464311
s_2_4 + s_2_2 + 1024 r_2_2_4 >= 2
- s_2_4 - s_2_2 - 1024 r_2_2_4 >= -1025
t_2_4 - t_2_2 + 1024.000000 u_2_2_4 - 4.250026 s_2_2 + 4.250026 s_2_7 + 2048.000000 r_2_2_4 > 14.211785
s_1_4 + s_1_3 + 1024 r_1_3_4 >= 2
- s_1_4 - s_1_3 - 1024 r_1_3_4 >= -1025
t_1_4 - t_1_3 + 1024.000000 u_1_3_4 - 5.963351 s_1_3 + 5.963351 s_1_7 + 2048.000000 r_1_3_4 > 1.901433
s_2_4 + s_2_3 + 1024 r_2_3_4 >= 2
- s_2_4 - s_2_3 - 1024 r_2_3_4 >= -1025
t_2_4 - t_2_3 + 1024.000000 u_2_3_4 - 6.375039 s_2_3 + 6.375039 s_2_7 + 2048.000000 r_2_3_4 > 2.510417
s_1_4 + s_1_5 + 1024 r_1_4_5 >= 2
- s_1_4 - s_1_5 - 1024 r_1_4_5 >= -1025
t_1_4 - t_1_5 - 1024.000000 u_1_4_5 - 5.963351 s_1_5 + 5.963351 s_1_8 + 2048.000000 r_1_4_5 > -1015.159800
s_2_4 + s_2_5 + 1024 r_2_4_5 >= 2
- s_2_4 - s_2_5 - 1024 r_2_4_5 >= -1025
t_2_4 - t_2_5 - 1024.000000 u_2_4_5 - 6.375039 s_2_5 + 6.375039 s_2_8 + 2048.000000 r_2_4_5 > -1017.314938
t_1_6 - t_1_4 - 6.906760 s_1_4 + 3.975568 s_1_7 > 0.0
t_1_6 - t_2_4 - 8.201271 s_2_4 + 4.250026 s_2_7 > 0.0
t_2_6 - t_1_4 - 6.906760 s_1_4 + 3.975568 s_1_7 > 0.0
t_2_6 - t_2_4 - 8.201271 s_2_4 + 4.250026 s_2_7 > 0.0
t_1_4 - t_1_7 - 1024.000000 s_1_7 > -997.901247
t_1_4 - t_2_7 - 1024.000000 s_2_7 > -1012.437778
t_2_4 - t_1_7 - 1024.000000 s_1_7 > -997.901247
t_2_4 - t_2_7 - 1024.000000 s_2_7 > -1012.437778
s_1_4 + s_1_8 + 1024 r_1_4_8 >= 2
- s_1_4 - s_1_8 - 1024 r_1_4_8 >= -1025
t_1_4 - t_1_8 - 1024.000000 u_1_4_8 + 2048.000000 r_1_4_8 > -998.373656
s_2_4 + s_2_8 + 1024 r_2_4_8 >= 2
- s_2_4 - s_2_8 - 1024 r_2_4_8 >= -1025
t_2_4 - t_2_8 - 1024.000000 u_2_4_8 + 2048.000000 r_2_4_8 > -1012.673400
s_1_5 + s_1_1 + 1024 r_1_1_5 >= 2
- s_1_5 - s_1_1 - 1024 r_1_1_5 >= -1025
t_1_5 - t_1_1 + 1024.000000 u_1_1_5 - 3.975568 s_1_1 + 3.975568 s_1_7 + 2048.000000 r_1_1_5 > 18.551758
s_2_5 + s_2_1 + 1024 r_2_1_5 >= 2
- s_2_5 - s_2_1 - 1024 r_2_1_5 >= -1025
t_2_5 - t_2_1 + 1024.000000 u_2_1_5 - 4.250026 s_2_1 + 4.250026 s_2_7 + 2048.000000 r_2_1_5 > 15.282027
s_1_5 + s_1_2 + 1024 r_1_2_5 >= 2
- s_1_5 - s_1_2 - 1024 r_1_2_5 >= -1025
t_1_5 - t_1_2 + 1024.000000 u_1_2_5 - 3.975568 s_1_2 + 3.975568 s_1_7 + 2048.000000 r_1_2_5 > 18.464311
s_2_5 + s_2_2 + 1024 r_2_2_5 >= 2
- s_2_5 - s_2_2 - 1024 r_2_2_5 >= -1025
t_2_5 - t_2_2 + 1024.000000 u_2_2_5 - 4.250026 s_2_2 + 4.250026 s_2_7 + 2048.000000 r_2_2_5 > 14.211785
s_1_5 + s_1_3 + 1024 r_1_3_5 >= 2
- s_1_5 - s_1_3 - 1024 r_1_3_5 >= -1025
t_1_5 - t_1_3 + 1024.000000 u_1_3_5 - 5.963351 s_1_3 + 5.963351 s_1_7 + 2048.000000 r_1_3_5 > 1.901433
s_2_5 + s_2_3 + 1024 r_2_3_5 >= 2
- s_2_5 - s_2_3 - 1024 r_2_3_5 >= -1025
t_2_5 - t_2_3 + 1024.000000 u_2_3_5 - 6.375039 s_2_3 + 6.375039 s_2_7 + 2048.000000 r_2_3_5 > 2.510417
s_1_5 + s_1_4 + 1024 r_1_4_5 >= 2
- s_1_5 - s_1_4 - 1024 r_1_4_5 >= -1025
t_1_5 - t_1_4 + 1024.000000 u_1_4_5 - 3.975568 s_1_4 + 3.975568 s_1_7 + 2048.000000 r_1_4_5 > 2.931192
s_2_5 + s_2_4 + 1024 r_2_4_5 >= 2
- s_2_5 - s_2_4 - 1024 r_2_4_5 >= -1025
t_2_5 - t_2_4 + 1024.000000 u_2_4_5 - 4.250026 s_2_4 + 4.250026 s_2_7 + 2048.000000 r_2_4_5 > 3.951244
t_1_6 - t_1_5 - 14.803551 s_1_5 + 5.963351 s_1_8 > 0.0
t_1_6 - t_2_5 - 13.060101 s_2_5 + 6.375039 s_2_8 > 0.0
t_2_6 - t_1_5 - 14.803551 s_1_5 + 5.963351 s_1_8 > 0.0
t_2_6 - t_2_5 - 13.060101 s_2_5 + 6.375039 s_2_8 > 0.0
s_1_5 + s_1_7 + 1024 r_1_5_7 >= 2
- s_1_5 - s_1_7 - 1024 r_1_5_7 >= -1025
t_1_5 - t_1_7 - 1024.000000 u_1_5_7 + 2048.000000 r_1_5_7 > -997.901247
s_2_5 + s_2_7 + 1024 r_2_5_7 >= 2
- s_2_5 - s_2_7 - 1024 r_2_5_7 >= -1025
t_2_5 - t_2_7 - 1024.000000 u_2_5_7 + 2048.000000 r_2_5_7 > -1012.437778
t_1_5 - t_1_8 - 1024.000000 s_1_8 > -998.373656
t_1_5 - t_2_8 - 1024.000000 s_2_8 > -1012.673400
t_2_5 - t_1_8 - 1024.000000 s_1_8 > -998.373656
t_2_5 - t_2_8 - 1024.000000 s_2_8 > -1012.673400
t_1_6 - t_1_7 - 1024.000000 s_1_7 > -997.901247
t_1_6 - t_2_7 - 1024.000000 s_2_7 > -1012.437778
t_2_6 - t_1_7 - 1024.000000 s_1_7 > -997.901247
t_2_6 - t_2_7 - 1024.000000 s_2_7 > -1012.437778
s_1_7 + s_1_5 + 1024 r_1_5_7 >= 2
- s_1_7 - s_1_5 - 1024 r_1_5_7 >= -1025
t_1_7 - t_1_5 + 1024.000000 u_1_5_7 - 5.963351 s_1_5 + 5.963351 s_1_8 + 2048.000000 r_1_5_7 > 8.840200
s_2_7 + s_2_5 + 1024 r_2_5_7 >= 2
- s_2_7 - s_2_5 - 1024 r_2_5_7 >= -1025
t_2_7 - t_2_5 + 1024.000000 u_2_5_7 - 6.375039 s_2_5 + 6.375039 s_2_8 + 2048.000000 r_2_5_7 > 6.685062
s_1_7 + s_1_8 + 1024 r_1_7_8 >= 2
- s_1_7 - s_1_8 - 1024 r_1_7_8 >= -1025
t_1_7 - t_1_8 - 1024.000000 u_1_7_8 + 2048.000000 r_1_7_8 > -998.373656
s_2_7 + s_2_8 + 1024 r_2_7_8 >= 2
- s_2_7 - s_2_8 - 1024 r_2_7_8 >= -1025
t_2_7 - t_2_8 - 1024.000000 u_2_7_8 + 2048.000000 r_2_7_8 > -1012.673400
s_1_8 + s_1_2 + 1024 r_1_2_8 >= 2
- s_1_8 - s_1_2 - 1024 r_1_2_8 >= -1025
t_1_8 - t_1_2 + 1024.000000 u_1_2_8 - 3.975568 s_1_2 + 3.975568 s_1_7 + 2048.000000 r_1_2_8 > 18.464311
s_2_8 + s_2_2 + 1024 r_2_2_8 >= 2
- s_2_8 - s_2_2 - 1024 r_2_2_8 >= -1025
t_2_8 - t_2_2 + 1024.000000 u_2_2_8 - 4.250026 s_2_2 + 4.250026 s_2_7 + 2048.000000 r_2_2_8 > 14.211785
s_1_8 + s_1_4 + 1024 r_1_4_8 >= 2
- s_1_8 - s_1_4 - 1024 r_1_4_8 >= -1025
t_1_8 - t_1_4 + 1024.000000 u_1_4_8 - 3.975568 s_1_4 + 3.975568 s_1_7 + 2048.000000 r_1_4_8 > 2.931192
s_2_8 + s_2_4 + 1024 r_2_4_8 >= 2
- s_2_8 - s_2_4 - 1024 r_2_4_8 >= -1025
t_2_8 - t_2_4 + 1024.000000 u_2_4_8 - 4.250026 s_2_4 + 4.250026 s_2_7 + 2048.000000 r_2_4_8 > 3.951244
s_1_8 + s_1_7 + 1024 r_1_7_8 >= 2
- s_1_8 - s_1_7 - 1024 r_1_7_8 >= -1025
t_1_8 - t_1_7 + 1024.000000 u_1_7_8 + 2048.000000 r_1_7_8 > 26.098753
s_2_8 + s_2_7 + 1024 r_2_7_8 >= 2
- s_2_8 - s_2_7 - 1024 r_2_7_8 >= -1025
t_2_8 - t_2_7 + 1024.000000 u_2_7_8 + 2048.000000 r_2_7_8 > 11.562222
Binary
s_1_1
s_2_1
s_1_2
s_2_2
s_1_3
s_2_3
s_1_4
s_2_4
s_1_5
s_2_5
s_1_6
s_2_6
s_1_7
s_2_7
s_1_8
s_2_8
u_1_1_2
r_1_1_2
u_2_1_2
r_2_1_2
u_1_1_3
r_1_1_3
u_2_1_3
r_2_1_3
u_1_1_4
r_1_1_4
u_2_1_4
r_2_1_4
u_1_1_5
r_1_1_5
u_2_1_5
r_2_1_5
u_1_2_3
r_1_2_3
u_2_2_3
r_2_2_3
u_1_2_4
r_1_2_4
u_2_2_4
r_2_2_4
u_1_2_5
r_1_2_5
u_2_2_5
r_2_2_5
u_1_2_8
r_1_2_8
u_2_2_8
r_2_2_8
u_1_3_4
r_1_3_4
u_2_3_4
r_2_3_4
u_1_3_5
r_1_3_5
u_2_3_5
r_2_3_5
u_1_4_5
r_1_4_5
u_2_4_5
r_2_4_5
u_1_4_8
r_1_4_8
u_2_4_8
r_2_4_8
u_1_5_7
r_1_5_7
u_2_5_7
r_2_5_7
u_1_7_8
r_1_7_8
u_2_7_8
r_2_7_8

End
